c description: Random 3-CNF over 19 variables and 81 clauses
c generator: CNFgen (0.9.2)
c copyright: (C) 2012-2022 Massimo Lauria <massimo.lauria@uniroma1.it>
c url: https://massimolauria.net/cnfgen
c command line: cnfgen --output CNF_4.28/19_bit_81_195.cnf randkcnf 3 19 81
c
p cnf 19 81
-13 -14 19 0
-2 8 -10 0
-5 -11 -17 0
6 7 9 0
-1 14 19 0
-3 -10 19 0
4 -8 11 0
-10 -14 19 0
-7 -8 -9 0
5 -11 14 0
2 -12 -19 0
3 13 15 0
-6 8 -12 0
1 8 -14 0
-4 7 18 0
11 16 19 0
-3 -17 -18 0
2 13 -19 0
-3 -10 13 0
3 -10 -18 0
-3 7 -8 0
3 10 18 0
-8 -10 14 0
2 -6 19 0
-1 -5 -14 0
-6 11 -19 0
-1 6 -14 0
-8 14 17 0
-1 3 -14 0
-5 7 14 0
-3 13 17 0
2 4 -5 0
1 -11 -17 0
2 -3 -7 0
3 8 -13 0
-2 -11 19 0
6 8 -17 0
-1 -6 -17 0
1 -4 -11 0
8 -10 -13 0
-4 -8 18 0
-2 -7 8 0
2 -5 14 0
3 -6 8 0
2 8 -12 0
-4 -7 16 0
-3 -5 -11 0
3 -16 17 0
-2 3 -14 0
2 5 10 0
-7 -8 -13 0
5 12 -14 0
-2 -5 19 0
7 -10 13 0
6 14 -17 0
3 7 -11 0
10 12 17 0
-1 -9 10 0
-14 -15 17 0
4 -14 17 0
1 5 -10 0
3 10 19 0
-10 -11 12 0
-6 -7 19 0
5 -10 -15 0
1 2 7 0
-1 -9 -12 0
8 14 19 0
10 -13 14 0
2 -15 18 0
-8 12 -13 0
-1 18 -19 0
2 -13 14 0
-3 -14 -16 0
1 5 -12 0
4 -9 -11 0
8 12 18 0
-4 -5 -7 0
2 5 -17 0
-5 10 14 0
2 -8 12 0
